(set-logic LIA)
(declare-var size Int)
(declare-var size! Int)
(declare-var x Int)
(declare-var x! Int)
(declare-var y Int)
(declare-var y! Int)
(declare-var z Int)
(declare-var z! Int)
(declare-var size_0 Int)
(declare-var size_0! Int)
(declare-var x_0 Int)
(declare-var x_0! Int)
(declare-var x_1 Int)
(declare-var x_1! Int)
(declare-var x_2 Int)
(declare-var x_2! Int)
(declare-var y_0 Int)
(declare-var y_0! Int)
(declare-var y_1 Int)
(declare-var y_1! Int)
(declare-var y_2 Int)
(declare-var y_2! Int)
(declare-var y_3 Int)
(declare-var y_3! Int)
(declare-var z_0 Int)
(declare-var z_0! Int)
(synth-fun inv-f((parameter0 Int)(parameter1 Int)(parameter2 Int)(parameter3 Int)(parameter4 Int)(parameter5 Int)(parameter6 Int)(parameter7 Int)(parameter8 Int)(parameter9 Int)(parameter10 Int)(parameter11 Int)(parameter12 Int))Bool) 
(constraint (=> (and (= x x_0) (= x_0 0) )(inv-f size x y z size_0 x_0 x_1 x_2 y_0 y_1 y_2 y_3 z_0 )))
(constraint (=> (and (inv-f size x y z size_0 x_0 x_1 x_2 y_0 y_1 y_2 y_3 z_0 ) (or (and (= x_1 x) (= y_1 y) (= x_1 x!) (= y_1 y!) (= size size_0) (= size! size_0) (= y y!) (= z z!) ) (and (= x_1 x) (= y_1 y) (< x_1 size_0) (= x_2 (+ x_1 1 )) (<= z_0 y_1) (= y_2 z_0) (= y_3 y_2) (= x_2 x!) (= y_3 y!) (= size size_0) (= size! size_0) (= z z_0) (= z! z_0) ) (and (= x_1 x) (= y_1 y) (< x_1 size_0) (= x_2 (+ x_1 1 )) (not (<= z_0 y_1)) (= y_3 y_1) (= x_2 x!) (= y_3 y!) (= size size_0) (= size! size_0) (= z z_0) (= z! z_0) ) ) )(inv-f size! x! y! z! size_0! x_0! x_1! x_2! y_0! y_1! y_2! y_3! z_0! )))
(constraint (=> (inv-f size x y z size_0 x_0 x_1 x_2 y_0 y_1 y_2 y_3 z_0 )(or (not (and (= size size_0) (= x x_1) (= y y_1) (= z z_0) )) (not (and (not (< x_1 size_0)) (> size_0 0) (not (>= z_0 y_1)) )) )))
(check-synth)

